results_rootrelaxation/bin018_080_024.srr.sol
solution status: optimal solution found
objective value:                     18.9830070546307
_var2843_                           0.089921329758513 	(obj:1)
_var2966_                           0.291190656962063 	(obj:0)
_var3060_                         0.00221142877783709 	(obj:2)
_var3091_                            0.30235306510191 	(obj:0)
_var3096_                           0.205757381369611 	(obj:0)
_var3116_                          0.0958682714136875 	(obj:1)
_var3135_                           0.135249560104313 	(obj:1)
_var3139_                           0.161023607971853 	(obj:1)
_var3160_                            0.59294810616783 	(obj:2)
_var3185_                           0.239810219705279 	(obj:0)
_var3195_                           0.104824014223268 	(obj:1)
_var3199_                           0.201447582065966 	(obj:0)
_var3224_                         0.00692283626640802 	(obj:1)
_var3227_                           0.234786791825715 	(obj:0)
_var3249_                           0.402328523948661 	(obj:0)
_var3259_                         0.00975131293642145 	(obj:1)
_var3260_                          0.0994301672313261 	(obj:1)
_var3275_                          0.0826607822472287 	(obj:2)
_var3289_                           0.126761660419096 	(obj:1)
_var3297_                           0.124623614264955 	(obj:1)
_var3309_                          0.0889098525255958 	(obj:1)
_var3332_                           0.289677241618121 	(obj:2)
_var3338_                          0.0476210387907764 	(obj:0)
_var3341_                           0.178730311582579 	(obj:2)
_var3343_                           0.270359540841527 	(obj:1)
_var3344_                          0.0531693565775062 	(obj:2)
_var3345_                           0.170611515256878 	(obj:0)
_var3350_                          0.0613946012309465 	(obj:3)
_var3355_                           0.170053673228618 	(obj:1)
_var3364_                           0.206318411761598 	(obj:3)
_var3367_                           0.052484250387822 	(obj:2)
_var3373_                           0.017817909355083 	(obj:1)
_var3376_                           0.394266803555361 	(obj:1)
_var3377_                           0.102307564980361 	(obj:1)
_var3379_                           0.193373972654326 	(obj:0)
_var3382_                           0.161274013133276 	(obj:1)
_var3396_                            0.12744648013852 	(obj:1)
_var3404_                          0.0123623868240458 	(obj:2)
_var3405_                          0.0562502497317029 	(obj:1)
_var3407_                           0.233639254286678 	(obj:1)
_var3409_                           0.134207369238947 	(obj:3)
_var3411_                           0.261585207082697 	(obj:0)
_var3431_                          0.0635855810580614 	(obj:1)
_var3443_                          0.0205352797914583 	(obj:4)
_var3456_                          0.0345271195021692 	(obj:1)
_var3459_                          0.0885604341961161 	(obj:0)
_var3466_                          0.0546275293987062 	(obj:3)
_var3467_                           0.140638602437172 	(obj:1)
_var3468_                           0.124346938273014 	(obj:2)
_var3469_                         0.00651310941381422 	(obj:3)
_var3471_                           0.270809006647464 	(obj:0)
_var3472_                           0.315226937035301 	(obj:2)
_var3475_                           0.107072770578479 	(obj:2)
_var3502_                          0.0218072358873448 	(obj:1)
_var3508_                           0.193373972654326 	(obj:0)
_var3509_                           0.131830220934146 	(obj:1)
_var3515_                           0.177490592939883 	(obj:0)
_var3517_                          0.0147152665746715 	(obj:2)
_var3519_                           0.232632180654476 	(obj:1)
_var3520_                           0.512947944096027 	(obj:2)
_var3521_                           0.296181393056661 	(obj:0)
_var3522_                           0.330368528649909 	(obj:0)
_var3525_                          0.0159645422672836 	(obj:1)
_var3526_                          0.0471302720147053 	(obj:1)
_var3532_                           0.153067469459396 	(obj:0)
_var3533_                           0.363150652260816 	(obj:0)
_var3536_                          0.0534337354566281 	(obj:2)
_var3541_                          0.0655048745015354 	(obj:1)
_var3546_                          0.0157966827572256 	(obj:1)
_var3549_                          0.0748336226971042 	(obj:0)
_var3556_                          0.0918072529348407 	(obj:1)
_var3559_                          0.0666705993839965 	(obj:0)
_var3561_                           0.110236560184457 	(obj:2)
_var3562_                           0.130785992611889 	(obj:2)
_var3563_                          0.0625376869216378 	(obj:1)
_var3565_                            0.41324608445011 	(obj:1)
_var3567_                          0.0698958172600095 	(obj:3)
_var3572_                           0.010299426032614 	(obj:0)
_var3577_                           0.188397478654832 	(obj:1)
_var3580_                          0.0262306080843297 	(obj:1)
_var3581_                          0.0913453492938578 	(obj:1)
_var3583_                           0.033051013642745 	(obj:2)
_var3584_                          0.0613946012309463 	(obj:2)
_var3589_                          0.0737636321546888 	(obj:2)
_var3590_                           0.213024028184533 	(obj:1)
_var3592_                           0.140769771640547 	(obj:1)
_var3594_                          0.0910266757567391 	(obj:3)
_var3595_                           0.215752803152696 	(obj:1)
_var3597_                          0.0112112196565589 	(obj:3)
_var3602_                          0.0152762969666585 	(obj:0)
_var3603_                          0.0401987119750375 	(obj:0)
_var3604_                          0.0136241496044985 	(obj:3)
_var3605_                           0.193373972654326 	(obj:1)
_var3606_                           0.266505953969721 	(obj:1)
_var3609_                           0.209852941125622 	(obj:3)
_var3613_                          0.0361239097535001 	(obj:0)
_var3615_                           0.277282377107935 	(obj:1)
_var3616_                           0.165451385779877 	(obj:1)
_var3617_                          0.0694472349886526 	(obj:3)
_var3619_                          0.0296971052849721 	(obj:0)
_var3620_                          0.0188509321669802 	(obj:3)
_var3621_                           0.341451484012047 	(obj:1)
_var3625_                           0.158456251456124 	(obj:2)
_var3626_                           0.172830449555506 	(obj:1)
_var3628_                          0.0239403336446901 	(obj:1)
_var3630_                           0.129962777602447 	(obj:2)
_var3631_                          0.0639409167574211 	(obj:2)
_var3632_                          0.0496097686044837 	(obj:2)
_var3633_                          0.0253723864091973 	(obj:0)
_var3638_                            0.05113658573077 	(obj:2)
_var3639_                          0.0764051784366408 	(obj:4)
_var3642_                          0.0576308112261163 	(obj:2)
_var3644_                          0.0284438551944406 	(obj:3)
_var3647_                          0.0159645422672836 	(obj:1)
_var3650_                         0.00505493659261416 	(obj:0)
_var3652_                          0.0430503012666017 	(obj:2)
_var3654_                          0.0299020280156424 	(obj:3)
_var3657_                          0.0890090164674699 	(obj:3)
_var3658_                          0.0644918623911251 	(obj:1)
_var3661_                          0.0776658958519274 	(obj:1)
_var3664_                         0.00692283626640802 	(obj:2)
_var3665_                          0.0386629871314225 	(obj:1)
_var3666_                           0.120381442045691 	(obj:2)
_var3669_                         0.00136089556239961 	(obj:3)
_var3670_                          0.0312689877011033 	(obj:2)
_var3672_                          0.0888424365245637 	(obj:1)
_var3673_                          0.0685646995271869 	(obj:1)
_var3674_                         0.00374617962256774 	(obj:1)
_var3675_                          0.0464989367952815 	(obj:2)
_var3682_                          0.0083046451628964 	(obj:3)
_var3683_                           0.332468583821875 	(obj:2)
_var3684_                          0.0344868759591166 	(obj:0)
_var3685_                          0.0648408806673937 	(obj:0)
_var3686_                           0.107315701379032 	(obj:2)
_var3688_                          0.0382126327650928 	(obj:2)
_var3689_                          0.0634855406176993 	(obj:3)
_var3690_                          0.0738208065926571 	(obj:1)
_var3694_                          0.0685349216976096 	(obj:2)
_var3695_                          0.0430684815739017 	(obj:1)
_var3696_                          0.0669450891555352 	(obj:2)
_var3697_                          0.0200103818430234 	(obj:1)
_var3698_                          0.0104006907563885 	(obj:2)
